File : Instances/p36
Used 75s
14703

1 0 0 0 0 1 0 0 1 0 0 1 0 0 1 0 0 0 0 0 1 0 0 0 1 1 0 0 0 0 
20 25 20 14 20 5 14 24 8 0 5 8 8 20 11 8 14 0 5 11 14 11 5 0 5 8 0 24 5 24 5 25 8 25 20 20 24 24 11 14 0 8 24 8 24 14 11 20 11 8 5 8 14 5 20 20 14 25 11 14 0 5 20 11 11 11 24 0 24 5 8 20 11 0 24 8 24 20 14 24 20 0 20 0 14 0 0 11 20 5 0 24 0 11 0 5 14 25 25 20 8 0 14 25 14 25 11 11 14 8 14 14 0 11 11 25 24 24 24 24 5 8 25 20 8 11 5 24 11 25 0 11 24 5 8 14 11 5 20 0 0 8 20 14 8 25 25 5 0 5 
